
******************************************************************************
This program contains Ipopt, a library for large-scale nonlinear optimization.
 Ipopt is released as open source code under the Eclipse Public License (EPL).
         For more information visit https://github.com/coin-or/Ipopt
******************************************************************************

This is Ipopt version 3.14.19, running with linear solver MUMPS 5.8.1.

Number of nonzeros in equality constraint Jacobian...:     4389
Number of nonzeros in inequality constraint Jacobian.:        0
Number of nonzeros in Lagrangian Hessian.............:     1050

Total number of variables............................:     1287
                     variables with only lower bounds:        0
                variables with lower and upper bounds:      457
                     variables with only upper bounds:        0
Total number of equality constraints.................:     1274
Total number of inequality constraints...............:        0
        inequality constraints with only lower bounds:        0
   inequality constraints with lower and upper bounds:        0
        inequality constraints with only upper bounds:        0

iter    objective    inf_pr   inf_du lg(mu)  ||d||  lg(rg) alpha_du alpha_pr  ls
   0  9.8589589e+00 9.90e+01 1.07e-03  -1.0 0.00e+00    -  0.00e+00 0.00e+00   0
   1  9.8516867e+00 6.72e-01 2.42e+01  -1.0 9.85e+01    -  3.84e-02 1.00e+00h  1
   2  9.8520624e+00 1.38e-02 3.23e-01  -1.0 5.59e-01    -  9.31e-01 1.00e+00h  1
   3  9.8592963e+00 1.17e-01 2.91e+00  -1.0 2.61e+00    -  6.21e-01 1.00e+00f  1
   4  9.8681895e+00 7.57e-02 1.07e+00  -1.0 4.04e+00    -  8.37e-01 7.08e-01f  1
   5  9.8732140e+00 2.85e-01 3.70e-03  -1.0 1.51e+00    -  1.00e+00 1.00e+00f  1
   6  9.8622796e+00 5.99e-01 2.27e-03  -1.7 1.11e+00    -  1.00e+00 1.00e+00h  1
   7  9.8634710e+00 4.79e-02 1.61e-04  -1.7 7.62e-01    -  1.00e+00 1.00e+00h  1
   8  9.8629225e+00 9.12e-02 1.27e-04  -2.5 6.76e-01    -  1.00e+00 1.00e+00h  1
   9  9.8625713e+00 3.79e-04 5.06e-06  -2.5 1.32e-01    -  1.00e+00 1.00e+00h  1
iter    objective    inf_pr   inf_du lg(mu)  ||d||  lg(rg) alpha_du alpha_pr  ls
  10  9.8619506e+00 3.21e-03 1.09e-02  -3.8 2.40e-01    -  8.20e-01 1.00e+00h  1
  11  9.8528115e+00 2.45e-03 3.58e-03  -3.8 3.68e+00    -  4.05e-01 1.00e+00h  1
  12  9.8514005e+00 7.94e-05 1.00e-04  -3.8 7.69e-01    -  1.00e+00 1.00e+00h  1
  13  9.8480966e+00 3.74e-04 5.29e-04  -5.7 1.51e+00    -  7.92e-01 1.00e+00h  1
  14  9.8479126e+00 2.79e-05 1.39e-04  -5.7 1.16e-01    -  1.00e+00 9.29e-01h  1
  15  9.8479319e+00 9.67e-09 2.28e-02  -5.7 4.63e-01    -  7.03e-01 1.00e+00f  1
  16  9.8479172e+00 7.12e-09 1.03e-08  -5.7 2.60e-01    -  1.00e+00 1.00e+00h  1
  17  9.8478982e+00 1.69e-08 6.68e-04  -8.6 4.80e-01    -  5.55e-01 5.70e-01h  1
  18  9.8478968e+00 1.24e-08 4.49e-02  -8.6 1.33e-01    -  8.96e-01 2.71e-01h  1
  19  9.8478968e+00 4.06e-11 3.62e-14  -8.6 1.00e-04    -  1.00e+00 1.00e+00f  1

Number of Iterations....: 19

                                   (scaled)                 (unscaled)
Objective...............:   9.8478968151076618e+00    9.8478968151076618e+00
Dual infeasibility......:   3.6179392814972289e-14    3.6179392814972289e-14
Constraint violation....:   4.0564884784892091e-11    4.0564884784892091e-11
Variable bound violation:   0.0000000000000000e+00    0.0000000000000000e+00
Complementarity.........:   3.7710646454984850e-09    3.7710646454984850e-09
Overall NLP error.......:   3.7710646454984850e-09    3.7710646454984850e-09


Number of objective function evaluations             = 20
Number of objective gradient evaluations             = 20
Number of equality constraint evaluations            = 20
Number of inequality constraint evaluations          = 0
Number of equality constraint Jacobian evaluations   = 20
Number of inequality constraint Jacobian evaluations = 0
Number of Lagrangian Hessian evaluations             = 19
Total seconds in IPOPT                               = 0.072

EXIT: Optimal Solution Found.
